p tw 28 41
1 2
1 5
5 6
5 9
9 10
13 14
13 17
17 18
17 21
21 22
25 26
2 3
2 6
6 7
6 10
10 14
14 15
14 18
18 19
18 22
22 23
22 26
26 27
3 4
3 7
7 8
7 11
11 12
11 15
15 16
15 19
19 20
19 23
23 24
23 27
27 28
4 8
12 16
16 20
20 24
24 28
